47
0 1 2 1 3 4 5 3 6 4 7 5 8 9 6 10 11 12 13 10 14 2 15 7 6 16 17 8 13 18 19 9 12 0 15 20 14 21 3 16 4 22 17 21 19 23 24 25 26 0 22 24 1 27 28 29 20 26 30 27 31 32 33 34 32 31 16 15 11 35 36 28 18 37 38 34 39 37 40 41 33 29 42 41 25 25 42 43 44 23 38 39 45 30 43 35 37 46 39 45 
